NAME : mr29
COMMENT : 29-city problem (DISC)
TYPE : TSP
DIMENSION : 29
EDGE_WEIGHT_TYPE : EUC_2D
NODE_COORD_SECTION
1 87 44
2 29 13
3 8 65
4 77 48
5 46 66
6 55 9
7 73 67
8 85 50
9 77 76
10 74 43
11 25 33
12 73 48
13 6 92
14 41 31
15 62 99
16 26 12
17 29 98
18 69 88
19 85 95
20 81 24
21 1 86
22 93 81
23 81 17
24 96 30
25 49 57
26 67 88
27 74 4
28 47 36
29 81 66
EOF
